Welcome to the CBC MILP Solver
Version: Devel (unstable)
Build Date: Feb  6 2022
command line - -import /home/danilo/psp-janniele/J30/j3025/j3025_7.lp -timeM elapsed -seconds 10800 -solve -quit (default strategy 1)
seconds was changed from 1e+08 to 10800
Continuous objective value is 0 - 0.108755 seconds
Cgl0002I 14 variables fixed
Cgl0003I 8 fixed, 0 tightened bounds, 22 strengthened rows, 0 substitutions
Cgl0003I 0 fixed, 0 tightened bounds, 16 strengthened rows, 0 substitutions
Cgl0003I 0 fixed, 0 tightened bounds, 15 strengthened rows, 0 substitutions
Cgl0003I 0 fixed, 0 tightened bounds, 11 strengthened rows, 0 substitutions
Cgl0003I 0 fixed, 0 tightened bounds, 11 strengthened rows, 0 substitutions
Cgl0003I 0 fixed, 0 tightened bounds, 11 strengthened rows, 0 substitutions
Cgl0003I 0 fixed, 0 tightened bounds, 8 strengthened rows, 0 substitutions
Cgl0003I 0 fixed, 0 tightened bounds, 7 strengthened rows, 0 substitutions
Cgl0003I 0 fixed, 0 tightened bounds, 7 strengthened rows, 0 substitutions
Cgl0003I 0 fixed, 0 tightened bounds, 7 strengthened rows, 0 substitutions
Cgl0004I processed model has 171 rows, 697 columns (697 integer (697 of which binary)) and 7885 elements
Coin3009W Conflict graph built in 0.051 seconds, density: 2.074%
Cgl0015I Clique Strengthening extended 1 cliques, 2 were dominated
After applying Clique Strengthening continuous objective value is 0
Cbc0045I No integer variables out of 697 objects (697 integer) have costs
Cbc0045I branch on satisfied N create fake objective Y random cost Y
Cbc0038I Initial state - 34 integers unsatisfied sum - 7.92405
Cbc0038I Pass   1: suminf.    4.29268 (22) obj. 0 iterations 44
Cbc0038I Pass   2: suminf.    3.41880 (17) obj. 0 iterations 76
Cbc0038I Pass   3: suminf.    2.69658 (14) obj. 0 iterations 28
Cbc0038I Pass   4: suminf.    3.35635 (14) obj. 0 iterations 34
Cbc0038I Pass   5: suminf.    2.68765 (13) obj. 0 iterations 22
Cbc0038I Pass   6: suminf.    2.20533 (13) obj. 0 iterations 19
Cbc0038I Pass   7: suminf.    4.44915 (18) obj. 0 iterations 54
Cbc0038I Pass   8: suminf.    3.33323 (16) obj. 0 iterations 12
Cbc0038I Pass   9: suminf.    3.83333 (12) obj. 0 iterations 55
Cbc0038I Pass  10: suminf.    2.26046 (10) obj. 0 iterations 27
Cbc0038I Pass  11: suminf.    2.03968 (9) obj. 0 iterations 4
Cbc0038I Pass  12: suminf.    2.63148 (15) obj. 0 iterations 54
Cbc0038I Pass  13: suminf.    2.62656 (15) obj. 0 iterations 10
Cbc0038I Pass  14: suminf.    3.27778 (13) obj. 0 iterations 66
Cbc0038I Pass  15: suminf.    2.15657 (10) obj. 0 iterations 16
Cbc0038I Pass  16: suminf.    2.03968 (10) obj. 0 iterations 2
Cbc0038I Pass  17: suminf.    3.33403 (13) obj. 0 iterations 48
Cbc0038I Pass  18: suminf.    2.92735 (14) obj. 0 iterations 9
Cbc0038I Pass  19: suminf.    1.81197 (11) obj. 0 iterations 22
Cbc0038I Pass  20: suminf.    2.29365 (9) obj. 0 iterations 58
Cbc0038I Pass  21: suminf.    1.66911 (9) obj. 0 iterations 28
Cbc0038I Pass  22: suminf.    2.54365 (9) obj. 0 iterations 53
Cbc0038I Pass  23: suminf.    1.66911 (9) obj. 0 iterations 50
Cbc0038I Pass  24: suminf.    8.00315 (28) obj. 0 iterations 96
Cbc0038I Pass  25: suminf.    3.39116 (21) obj. 0 iterations 66
Cbc0038I Pass  26: suminf.    2.89116 (19) obj. 0 iterations 4
Cbc0038I Pass  27: suminf.    2.18162 (13) obj. 0 iterations 41
Cbc0038I Pass  28: suminf.    1.73718 (13) obj. 0 iterations 11
Cbc0038I Pass  29: suminf.    2.46173 (13) obj. 0 iterations 58
Cbc0038I Pass  30: suminf.    2.28889 (12) obj. 0 iterations 8
Cbc0038I Pass  31: suminf.    2.26190 (7) obj. 0 iterations 33
Cbc0038I Pass  32: suminf.    1.77778 (8) obj. 0 iterations 22
Cbc0038I Pass  33: suminf.    1.52778 (9) obj. 0 iterations 29
Cbc0038I Pass  34: suminf.    1.44444 (10) obj. 0 iterations 15
Cbc0038I Pass  35: suminf.    2.56878 (8) obj. 0 iterations 25
Cbc0038I Pass  36: suminf.    2.32323 (8) obj. 0 iterations 12
Cbc0038I Pass  37: suminf.    1.80247 (6) obj. 0 iterations 18
Cbc0038I Pass  38: suminf.    1.00000 (6) obj. 0 iterations 7
Cbc0038I Pass  39: suminf.    2.50794 (8) obj. 0 iterations 45
Cbc0038I Pass  40: suminf.    1.77778 (8) obj. 0 iterations 11
Cbc0038I Pass  41: suminf.    1.44444 (8) obj. 0 iterations 21
Cbc0038I Pass  42: suminf.    1.44444 (8) obj. 0 iterations 4
Cbc0038I Pass  43: suminf.    2.95470 (12) obj. 0 iterations 35
Cbc0038I Pass  44: suminf.    2.11111 (10) obj. 0 iterations 35
Cbc0038I Pass  45: suminf.    2.02020 (7) obj. 0 iterations 27
Cbc0038I Pass  46: suminf.    1.11111 (5) obj. 0 iterations 17
Cbc0038I Pass  47: suminf.    1.22222 (5) obj. 0 iterations 20
Cbc0038I Pass  48: suminf.    0.55556 (6) obj. 0 iterations 8
Cbc0038I Pass  49: suminf.    2.06173 (7) obj. 0 iterations 21
Cbc0038I Pass  50: suminf.    1.80247 (6) obj. 0 iterations 4
Cbc0038I Pass  51: suminf.    1.00000 (6) obj. 0 iterations 7
Cbc0038I Pass  52: suminf.    2.50794 (8) obj. 0 iterations 42
Cbc0038I Pass  53: suminf.    1.77778 (8) obj. 0 iterations 17
Cbc0038I Pass  54: suminf.    1.44444 (8) obj. 0 iterations 24
Cbc0038I Pass  55: suminf.    1.44444 (8) obj. 0 iterations 4
Cbc0038I Pass  56: suminf.    2.95470 (12) obj. 0 iterations 44
Cbc0038I Pass  57: suminf.    2.11111 (10) obj. 0 iterations 33
Cbc0038I Pass  58: suminf.    2.02020 (7) obj. 0 iterations 24
Cbc0038I Pass  59: suminf.    1.11111 (5) obj. 0 iterations 20
Cbc0038I Pass  60: suminf.    1.22222 (5) obj. 0 iterations 21
Cbc0038I Pass  61: suminf.    0.55556 (6) obj. 0 iterations 10
Cbc0038I Pass  62: suminf.    2.06173 (7) obj. 0 iterations 22
Cbc0038I Pass  63: suminf.    1.80247 (6) obj. 0 iterations 3
Cbc0038I Pass  64: suminf.    1.00000 (6) obj. 0 iterations 7
Cbc0038I Pass  65: suminf.    2.50794 (8) obj. 0 iterations 32
Cbc0038I Pass  66: suminf.    1.77778 (8) obj. 0 iterations 11
Cbc0038I Pass  67: suminf.    1.44444 (8) obj. 0 iterations 24
Cbc0038I Pass  68: suminf.    1.44444 (8) obj. 0 iterations 3
Cbc0038I Pass  69: suminf.    2.95470 (12) obj. 0 iterations 45
Cbc0038I Pass  70: suminf.    2.11111 (10) obj. 0 iterations 30
Cbc0038I Pass  71: suminf.    2.02020 (7) obj. 0 iterations 27
Cbc0038I Pass  72: suminf.    1.11111 (5) obj. 0 iterations 17
Cbc0038I Pass  73: suminf.    1.22222 (5) obj. 0 iterations 20
Cbc0038I Pass  74: suminf.    0.55556 (6) obj. 0 iterations 8
Cbc0038I Pass  75: suminf.    2.06173 (7) obj. 0 iterations 20
Cbc0038I Pass  76: suminf.    1.80247 (6) obj. 0 iterations 4
Cbc0038I Pass  77: suminf.    1.00000 (6) obj. 0 iterations 7
Cbc0038I Pass  78: suminf.    2.50794 (8) obj. 0 iterations 40
Cbc0038I Pass  79: suminf.    1.77778 (8) obj. 0 iterations 11
Cbc0038I Pass  80: suminf.    1.44444 (8) obj. 0 iterations 25
Cbc0038I Pass  81: suminf.    1.44444 (8) obj. 0 iterations 4
Cbc0038I Pass  82: suminf.    2.95470 (12) obj. 0 iterations 48
Cbc0038I Pass  83: suminf.    2.11111 (10) obj. 0 iterations 30
Cbc0038I Pass  84: suminf.    2.02020 (7) obj. 0 iterations 24
Cbc0038I Pass  85: suminf.    1.11111 (5) obj. 0 iterations 20
Cbc0038I Pass  86: suminf.    1.22222 (5) obj. 0 iterations 20
Cbc0038I Pass  87: suminf.    0.55556 (6) obj. 0 iterations 10
Cbc0038I Pass  88: suminf.    2.06173 (7) obj. 0 iterations 22
Cbc0038I Pass  89: suminf.    1.80247 (6) obj. 0 iterations 4
Cbc0038I Pass  90: suminf.    1.00000 (6) obj. 0 iterations 7
Cbc0038I Pass  91: suminf.    2.50794 (8) obj. 0 iterations 39
Cbc0038I Pass  92: suminf.    1.77778 (8) obj. 0 iterations 11
Cbc0038I Pass  93: suminf.    1.44444 (8) obj. 0 iterations 25
Cbc0038I Pass  94: suminf.    1.44444 (8) obj. 0 iterations 3
Cbc0038I Pass  95: suminf.    2.95470 (12) obj. 0 iterations 58
Cbc0038I Pass  96: suminf.    2.11111 (10) obj. 0 iterations 28
Cbc0038I Pass  97: suminf.    2.02020 (7) obj. 0 iterations 23
Cbc0038I Pass  98: suminf.    1.11111 (5) obj. 0 iterations 20
Cbc0038I Pass  99: suminf.    1.22222 (5) obj. 0 iterations 22
Cbc0038I Pass 100: suminf.    9.46411 (32) obj. 0 iterations 99
Cbc0038I No solution found this major pass
Cbc0038I Before mini branch and bound, 542 integers at bound fixed and 0 continuous
Cbc0038I Full problem 170 rows 697 columns, reduced to 159 rows 152 columns
Cbc0038I Mini branch and bound improved solution from 1.79769e+308 to 0 (2.05 seconds)
Cbc0038I After 2.05 seconds - Feasibility pump exiting with objective of 0 - took 0.57 seconds
Cbc0012I Integer solution of 0 found by feasibility pump after 0 iterations and 0 nodes (2.05 seconds)
Cbc0001I Search completed - best objective 0, took 0 iterations and 0 nodes (2.05 seconds)
Cbc0035I Maximum depth 0, 0 variables fixed on reduced cost
Cuts at root node changed objective from 0 to 0
Probing was tried 0 times and created 0 cuts of which 0 were active after adding rounds of cuts (0 seconds)
Gomory was tried 0 times and created 0 cuts of which 0 were active after adding rounds of cuts (0 seconds)
Knapsack was tried 0 times and created 0 cuts of which 0 were active after adding rounds of cuts (0 seconds)
Clique was tried 0 times and created 0 cuts of which 0 were active after adding rounds of cuts (0 seconds)
OddWheel was tried 0 times and created 0 cuts of which 0 were active after adding rounds of cuts (0 seconds)
MixedIntegerRounding2 was tried 0 times and created 0 cuts of which 0 were active after adding rounds of cuts (0 seconds)
FlowCover was tried 0 times and created 0 cuts of which 0 were active after adding rounds of cuts (0 seconds)
TwoMirCuts was tried 0 times and created 0 cuts of which 0 were active after adding rounds of cuts (0 seconds)
ZeroHalf was tried 0 times and created 0 cuts of which 0 were active after adding rounds of cuts (0 seconds)

Result - Optimal solution found
Objective value:                0
Enumerated nodes:               0
Total iterations:               0
Time (CPU seconds):             2.0923
Time (Wallclock seconds):       2.0664
Total time (CPU seconds):       2.10779   (Wallclock seconds):       2.07919
